[[88, 89, 90, 99, 98, 97, 96, 87, 86, 95, 94, 93, 92, 91, 82, 83, 84, 85, 76], [77, 68, 67, 66, 75, 73, 74, 65, 64, 55, 56, 57, 58, 49, 47, 46], [48, 39, 40, 38, 37, 28, 29, 30, 31, 21, 22, 19, 20, 13, 12, 11, 10, 2, 3, 4, 5, 14], [23, 24, 25, 15, 16, 6, 7, 8, 9, 18, 17, 27, 26, 35, 36, 44], [34, 43, 33, 42, 32, 41, 50, 51, 52, 45, 54, 53, 60, 59, 61, 62, 63, 72, 71, 81, 80, 70, 69, 78, 79]]